\ Model linear program
\ LP format - for model browsing. Use MPS format to capture full model detail.
\ Signature: 0x9cf55149216cd101
Minimize
  - 2 x - 10 y
Subject To
 c1: 3 x + 2 y <= 2
 c2: x + 2 y <= 1
Bounds
 -infinity <= y <= 0
End
